NAME : XML100_3376_13
DIMENSION : 101
NB_CLUSTERS : 18
CLUSTERING_ALG : DBSCAN
CLUSTERING_PARAMS : eps(74), minSamples(3)
CLUSTERS
1 0
2 2 21 48 61 62 75 88 89 92 99
3 3 56 71
4 4 5 7 11 14 19 22 27 29 34 36 43 46 50 51 52 54 57 66 67 68 72 78 80 86 87 90 97 100
5 9 10 16 26 28 32 38 40 42 45 49 60 64 65 69 70 74 81 93
6 12 18 35 44 85
7 33 41 79
8 76 96 98
9 6 15 24 39 84 91
10 47 58
11 13 31 77
12 8 63
13 23 30
14 17 82 94
15 55 95
16 1 59
17 20 53 73 83
18 25 37
EOF